1566519
6,23,49,19,1,54,13,47,20,4,48,2,65,45,27,17,9,58,15,8,68,35,51,39,62,37,53,44,14,10,18,57,33,52,22,31,28,50,36,59,16,63,21,3,61,24,12,42,32,56,40,5,60,29,25,30,41,64,67,38,7,43,46,34,55,26,66,11
